CMD:
./solvers/bin/cadical --plain --no-reduce -t 1600 ./data/cnfs//qspiflash_qflexpress_divfive-p139/qspiflash_qflexpress_divfive-p139.35.cnf

c --- [ banner ] -------------------------------------------------------------
c 
c CaDiCaL SAT Solver
c Copyright (c) 2016-2024
c A. Biere, M. Fleury, N. Froleyks, K. Fazekas, F. Pollitt, T. Faller
c JKU Linz, University of Freiburg, TU Wien
c 
c Version 2.1.3 5296d3d2a9bf48c154ab2acb5e44625776d821bf
c g++ (Gentoo 12.3.1_p20230526 p2) 12.3.1 20230526 -Wall -Wextra -O3 -DNDEBUG
c Sat Aug 9 07:26:21 PDT 2025 Linux cedar2.int.cedar.computecanada.ca 5.14.0-362.24.2.el9_3.x86_64 x86_64
c 
c --- [ limit ] --------------------------------------------------------------
c 
c setting time limit to 1600 seconds real time (due to '-t 1600')
c 
c --- [ parsing input ] ------------------------------------------------------
c 
c reading DIMACS file from './data/cnfs//qspiflash_qflexpress_divfive-p139/qspiflash_qflexpress_divfive-p139.35.cnf'
c opening file to read './data/cnfs//qspiflash_qflexpress_divfive-p139/qspiflash_qflexpress_divfive-p139.35.cnf'
c found 'p cnf 94937 276152' header
c parsed 276152 clauses in 0.04 seconds process time
c 
c --- [ options ] ------------------------------------------------------------
c 
c   --compact=false                (different from default 'true')
c   --decompose=false              (different from default 'true')
c   --deduplicate=false            (different from default 'true')
c   --elim=false                   (different from default 'true')
c   --probe=false                  (different from default 'true')
c   --reduce=false                 (different from default 'true')
c   --subsume=false                (different from default 'true')
c   --ternary=false                (different from default 'true')
c   --transred=false               (different from default 'true')
c   --vivify=false                 (different from default 'true')
c 
c --- [ solving ] ------------------------------------------------------------
c 
c time measured in process time since initialization
c 
c  seconds  reductions  redundant  irredundant
c         MB    restarts       trail       variables
c          level   conflicts       glue         remaining
c 
c *  0.04 46  0 0   0    0    0  0% 0 262720 87236 92%
c {  0.06 48  0 0   0    0    0  0% 0 262720 87236 92%
c i  0.06 48 14 0   0   28   20 13% 3 262720 87159 92%
c i  0.06 48 14 0   0   29   20 13% 3 262720 87153 92%
c i  0.06 48 14 0   0   30   20 13% 3 262720 87076 92%
c i  0.09 48 56 0  10  363  317 22% 4 262720 87075 92%
c i  0.09 48 53 0  13  393  339 21% 4 262720 87069 92%
c i  0.09 48 53 0  13  399  344 21% 4 262720 87063 92%
c i  0.09 48 52 0  13  458  394 22% 4 262720 87062 92%
c i  0.10 48 47 0  18  600  516 22% 4 262720 87019 92%
c i  0.10 48 47 0  18  612  526 22% 4 262720 86827 91%
c i  0.11 48 45 0  18  695  594 22% 3 262720 86797 91%
c i  0.11 49 42 0  27  857  741 22% 3 262720 86717 91%
c i  0.11 49 42 0  27  864  747 22% 3 262720 86713 91%
c i  0.12 49 44 0  30  958  828 22% 3 262720 86707 91%
c i  0.12 49 43 0  30  960  829 22% 3 262720 86696 91%
c i  0.12 49 43 0  30  961  829 22% 3 262720 86691 91%
c i  0.12 49 43 0  30  979  846 21% 3 262720 86552 91%
c i  0.12 49 42 0  30  994  859 21% 3 262720 86545 91%
c }  0.12 49 42 0  30 1003  868 21% 3 262720 86545 91%
c 
c  seconds  reductions  redundant  irredundant
c         MB    restarts       trail       variables
c          level   conflicts       glue         remaining
c 
c [  0.12 49  0 0  30 1003  868  0% 0 262720 86545 91%
c O  0.13 49 468 0  30 1004  869 49% 1 262720 86545 91%
c i  0.22 49 385 0  30 1691 1472 36% 4 262720 85751 90%
c ]  0.22 49 380 0  30 1705 1477 35% 3 262720 85217 90%
c 0  0.22 49 380 0  30 1705 1477 35% 3 262720 85217 90%
c 
c --- [ result ] -------------------------------------------------------------
c 
s UNSATISFIABLE
c 
c --- [ run-time profiling ] -------------------------------------------------
c 
c process time taken by individual solving procedures
c (percentage relative to process time for solving)
c 
c         0.18   99.95% search
c         0.10   54.88% stable
c         0.06   36.28% unstable
c         0.04   22.70% parse
c         0.02    8.75% lucky
c         0.00    0.00% simplify
c   =================================
c         0.18   81.31% solve
c 
c last line shows process time for solving
c (percentage relative to total process time)
c 
c --- [ statistics ] ---------------------------------------------------------
c 
c chronological:               828        48.56 %  of conflicts
c conflicts:                  1705      9552.36    per second
c decisions:                  4569     25598.07    per second
c fixed:                      9719        10.24 %  of all variables
c learned:                    1594        93.49 %  per conflict
c learned_lits:              22703       100.00 %  learned literals
c minimized:                     0         0.00 %  learned literals
c shrunken:                   2233         9.84 %  learned literals
c minishrunken:               4480        19.73 %  learned literals
c otfs:                         25         1.47 %  of conflict
c propagations:            3177354        17.80 M  per second
c rephased:                      1      1705.00    interval
c restarts:                     30        56.83    interval
c stabilizing:                   1        41.11 %  of conflicts
c subsumed:                     97         0.04 %  of all clauses
c strengthened:                 24         0.01 %  of all clauses
c 
c seconds are measured in process time for solving
c 
c --- [ resources ] ----------------------------------------------------------
c 
c total process time since initialization:         0.22    seconds
c total real time since initialization:            0.22    seconds
c maximum resident set size of process:           46.44    MB
c 
c --- [ shutting down ] ------------------------------------------------------
c 
c exit 20
